1724411
46,64,44,26,16,1,47,3,19,12,53,0,4,39,55,41,2,20,62,15,8,57,14,7,67,34,50,38,61,49,27,58,35,52,36,43,13,9,17,56,32,51,21,30,42,6,33,45,54,25,65,10,63,66,37,40,29,24,5,22,48,18,59,28,31,11,60,23,46